
  32    4
  10   10   10   10

   0   0   0   0   0   3 2 11 12 
   9   1   1   1   0   1 3 
   3   4   5   2   0   2 22 4 
   8   3   5   4   0   1 5 
   5   0   6   6   1   3 31 9 6 
   1   3   4   5   0   1 7 
   2   0   4   5   1   3 24 14 8 
   7   5   7   4   0   2 16 10 
   2   7   3   3   0   1 10 
   1   7   4   2   0   3 19 17 13 
   9   0   3   3   8   3 30 18 16 
   1   7   5   6   0   3 30 18 17 
   7   0   5  10   7   2 30 15 
   2   2   7   5   0   2 19 16 
  10   4   3   2   0   1 18 
  10   4   0   3   4   1 17 
  10   4   1   0   4   1 20 
   7   2   5   0   1   1 20 
   9   3   0   3   7   1 20 
   5   0   3   4   3   1 21 
   6   5   5   0   5   1 23 
   2   7   0   5   3   1 23 
   3   2   5   5   0   1 25 
   3   4   2   0   4   1 25 
   5   1   3   0   4   1 26 
   2   3   0   4   5   2 29 27 
   9   5   3   5   0   1 28 
   4   5   3   5   0   1 32
   6   5   7   3   0   1 32
   2   0   1   2   6   1 32
   3   3   0   3   1   1 32
   0   0   0   0   0   0 
